p cnf 72 173
a 8 2 15 9 3 16 1 7 14 21 28 32 36 48 40 44 0
d 49 40 44 0
d 65 15 16 0
d 4 2 3 0
d 5 1 2 3 0
d 6 1 2 3 0
d 10 8 9 0
d 11 7 8 9 0
d 12 7 8 9 0
d 13 1 2 3 7 8 9 0
d 17 15 16 0
d 18 14 15 16 0
d 19 14 15 16 0
d 20 1 2 3 7 8 9 14 15 16 0
d 22 1 7 0
d 23 2 3 0
d 24 1 7 2 3 0
d 25 21 1 7 2 3 0
d 26 21 1 7 2 3 0
d 27 1 2 3 7 8 9 14 15 16 21 0
d 29 28 2 3 0
d 30 28 2 3 0
d 31 1 2 3 7 8 9 14 15 16 21 28 0
d 33 32 8 9 0
d 34 32 8 9 0
d 35 1 2 3 7 8 9 14 15 16 21 28 32 0
d 37 36 15 16 0
d 38 36 15 16 0
d 39 1 2 3 7 8 9 14 15 16 21 28 32 36 0
d 41 40 28 0
d 42 40 28 0
d 43 1 2 3 7 8 9 14 15 16 21 28 32 36 40 0
d 45 44 32 0
d 46 44 32 0
d 47 1 2 3 7 8 9 14 15 16 21 28 32 36 40 44 0
d 50 40 44 2 3 0
d 51 48 40 44 2 3 0
d 52 48 40 44 2 3 0
d 53 1 2 3 7 8 9 14 15 16 21 28 32 36 40 44 48 0
d 54 8 9 0
d 55 8 9 0
d 56 28 32 0
d 57 1 7 0
d 58 28 32 1 7 0
d 59 8 9 28 32 1 7 0
d 60 36 48 0
d 61 14 21 0
d 62 36 48 14 21 0
d 63 8 9 28 32 1 7 36 48 14 21 0
d 64 36 48 0
d 66 36 48 15 16 0
d 67 14 21 0
d 68 15 16 0
d 69 14 21 15 16 0
d 70 36 48 15 16 14 21 0
d 71 8 9 28 32 1 7 36 48 14 21 15 16 0
d 72 1 2 3 7 8 9 14 15 16 21 28 32 36 40 44 48 0
4 -2 3 0
4 2 -3 0
-4 -2 -3 0
-4 2 3 0
5 -1 -4 0
5 1 4 0
-5 -1 4 0
-5 1 -4 0
6 5 0
-6 -5 0
10 -8 9 0
10 8 -9 0
-10 -8 -9 0
-10 8 9 0
11 -7 -10 0
11 7 10 0
-11 -7 10 0
-11 7 -10 0
12 11 0
-12 -11 0
13 -6 0
13 -12 0
-13 6 12 0
17 -15 16 0
17 15 -16 0
-17 -15 -16 0
-17 15 16 0
18 -14 -17 0
18 14 17 0
-18 -14 17 0
-18 14 -17 0
19 18 0
-19 -18 0
20 -13 0
20 -19 0
-20 13 19 0
-22 1 0
-22 7 0
22 -1 -7 0
-23 2 0
-23 3 0
23 -2 -3 0
24 -22 0
24 -23 0
-24 22 23 0
25 -21 -24 0
25 21 24 0
-25 -21 24 0
-25 21 -24 0
26 25 0
-26 -25 0
27 -20 0
27 -26 0
-27 20 26 0
29 -28 -4 0
29 28 4 0
-29 -28 4 0
-29 28 -4 0
30 29 0
-30 -29 0
31 -27 0
31 -30 0
-31 27 30 0
33 -32 -10 0
33 32 10 0
-33 -32 10 0
-33 32 -10 0
34 33 0
-34 -33 0
35 -31 0
35 -34 0
-35 31 34 0
37 -36 -17 0
37 36 17 0
-37 -36 17 0
-37 36 -17 0
38 37 0
-38 -37 0
39 -35 0
39 -38 0
-39 35 38 0
41 -40 -28 0
41 40 28 0
-41 -40 28 0
-41 40 -28 0
42 41 0
-42 -41 0
43 -39 0
43 -42 0
-43 39 42 0
45 -44 -32 0
45 44 32 0
-45 -44 32 0
-45 44 -32 0
46 45 0
-46 -45 0
47 -43 0
47 -46 0
-47 43 46 0
50 -49 0
50 -23 0
-50 49 23 0
51 -48 -50 0
51 48 50 0
-51 -48 50 0
-51 48 -50 0
52 51 0
-52 -51 0
53 -47 0
53 -52 0
-53 47 52 0
-54 8 0
-54 9 0
54 -8 -9 0
55 -54 -54 0
55 54 54 0
-55 -54 54 0
-55 54 -54 0
56 -28 32 0
56 28 -32 0
-56 -28 -32 0
-56 28 32 0
57 -1 7 0
57 1 -7 0
-57 -1 -7 0
-57 1 7 0
58 -56 -57 0
58 56 57 0
-58 -56 57 0
-58 56 -57 0
-59 55 0
-59 58 0
59 -55 -58 0
60 -36 0
60 -48 0
-60 36 48 0
61 -14 21 0
61 14 -21 0
-61 -14 -21 0
-61 14 21 0
62 -60 -61 0
62 60 61 0
-62 -60 61 0
-62 60 -61 0
-63 59 0
-63 62 0
63 -59 -62 0
-64 36 0
-64 48 0
64 -36 -48 0
66 -64 0
66 -65 0
-66 64 65 0
-67 14 0
-67 21 0
67 -14 -21 0
-68 15 0
-68 16 0
68 -15 -16 0
69 -67 0
69 -68 0
-69 67 68 0
70 -66 -69 0
70 66 69 0
-70 -66 69 0
-70 66 -69 0
-71 63 0
-71 70 0
71 -63 -70 0
72 -53 0
72 -71 0
-72 53 71 0
72 0
